
Gurobi 9.0.2 (win64) logging started Sat Nov  4 11:57:24 2023

Changed value of parameter LogFile to C:\Users\u0138303\OneDrive - KU Leuven\JointResearch\05. Models\06.Benchmarking\D.Representative_days_based_on_RES_and_Demand\RTS24_ByStages_nc10/openStarNet_RTS24_ByStages_nc10.log
   Prev:   Default: 
Changed value of parameter Method to 2
   Prev: -1  Min: -1  Max: 5  Default: -1
Changed value of parameter MIPFocus to 1
   Prev: 0  Min: 0  Max: 3  Default: 0
Changed value of parameter Presolve to 2
   Prev: -1  Min: -1  Max: 2  Default: -1
Changed value of parameter RINS to 100
   Prev: -1  Min: -1  Max: 2000000000  Default: -1
Parameter Crossover unchanged
   Value: -1  Min: -1  Max: 5  Default: -1
Changed value of parameter MIPGap to 0.01
   Prev: 0.0001  Min: 0.0  Max: inf  Default: 0.0001
Changed value of parameter Threads to 6
   Prev: 0  Min: 0  Max: 1024  Default: 0
Changed value of parameter TimeLimit to 604800.0
   Prev: inf  Min: 0.0  Max: inf  Default: inf
Changed value of parameter IterationLimit to 760000000.0
   Prev: inf  Min: 0.0  Max: inf  Default: inf
Gurobi Optimizer version 9.0.2 build v9.0.2rc0 (win64)
Optimize a model with 4691 rows, 2681 columns and 12354 nonzeros
Model fingerprint: 0xd3280908
Variable types: 2642 continuous, 39 integer (39 binary)
Coefficient statistics:
  Matrix range     [3e-02, 3e+03]
  Objective range  [1e+00, 1e+00]
  Bounds range     [4e-04, 3e+00]
  RHS range        [4e-04, 3e+00]
Presolve removed 2411 rows and 1176 columns
Presolve time: 0.02s
Presolved: 2280 rows, 1505 columns, 7936 nonzeros
Variable types: 1466 continuous, 39 integer (39 binary)
Presolved: 2280 rows, 1505 columns, 7936 nonzeros

Root barrier log...

Ordering time: 0.03s

Barrier statistics:
 AA' NZ     : 4.339e+04
 Factor NZ  : 3.579e+05 (roughly 4 MBytes of memory)
 Factor Ops : 7.942e+07 (less than 1 second per iteration)
 Threads    : 5

                  Objective                Residual
Iter       Primal          Dual         Primal    Dual     Compl     Time
   0   5.51964279e+05 -2.05158782e+07  3.95e+00 5.70e+02  1.17e+04     0s
   1   5.48905218e+04 -5.15205164e+06  2.77e-01 6.00e-11  1.38e+03     0s
   2   1.54140758e+04 -4.74719960e+05  7.28e-04 2.11e-11  1.04e+02     0s
   3   1.88093569e+03 -3.20720265e+04  7.87e-06 9.66e-12  7.21e+00     0s
   4   2.74748477e+02 -1.96256045e+03  4.31e-13 2.54e-12  4.75e-01     0s
   5   1.51814658e+02 -2.18017233e+02  1.82e-13 2.44e-12  7.85e-02     0s
   6   8.11051815e+01 -4.08779500e+01  1.14e-13 2.06e-12  2.59e-02     0s
   7   5.26371525e+01  9.64363595e+00  1.05e-13 2.90e-12  9.13e-03     0s
   8   4.26697716e+01  2.81495051e+01  2.15e-13 3.52e-12  3.08e-03     0s
   9   4.07623730e+01  3.68771138e+01  1.75e-13 2.77e-12  8.25e-04     0s
  10   3.92915240e+01  3.84556103e+01  6.19e-13 3.58e-12  1.77e-04     0s
  11   3.89887332e+01  3.88879558e+01  2.19e-12 3.08e-12  2.14e-05     0s
  12   3.89234666e+01  3.89185376e+01  2.39e-11 1.82e-12  1.05e-06     0s
  13   3.89212122e+01  3.89212071e+01  1.86e-11 3.87e-12  1.09e-09     0s
  14   3.89212099e+01  3.89212099e+01  1.20e-11 3.67e-12  4.76e-15     0s

Barrier solved model in 14 iterations and 0.17 seconds
Optimal objective 3.89212099e+01


Root relaxation: objective 3.892121e+01, 124 iterations, 0.13 seconds

    Nodes    |    Current Node    |     Objective Bounds      |     Work
 Expl Unexpl |  Obj  Depth IntInf | Incumbent    BestBd   Gap | It/Node Time

     0     0   38.92121    0    6          -   38.92121      -     -    0s
H    0     0                      57.2227881   38.92121  32.0%     -    0s
H    0     0                      50.5664151   38.92121  23.0%     -    0s
     0     0   40.29585    0    8   50.56642   40.29585  20.3%     -    0s
     0     0   40.33488    0    8   50.56642   40.33488  20.2%     -    0s
     0     0   41.49208    0    7   50.56642   41.49208  17.9%     -    0s
     0     0   42.64745    0    7   50.56642   42.64745  15.7%     -    0s
H    0     0                      49.4537517   42.64745  13.8%     -    0s
H    0     0                      47.7377112   42.88159  10.2%     -    0s
     0     0   42.93471    0    9   47.73771   42.93471  10.1%     -    0s
     0     0   43.11465    0    8   47.73771   43.11465  9.68%     -    0s
     0     0   43.48331    0    8   47.73771   43.48331  8.91%     -    0s
     0     0   43.51225    0    9   47.73771   43.51225  8.85%     -    0s
     0     0   43.52476    0    9   47.73771   43.52476  8.83%     -    0s
H    0     0                      47.6561361   43.52476  8.67%     -    0s
     0     2   43.52476    0    9   47.65614   43.52476  8.67%     -    0s

Cutting planes:
  Gomory: 5
  MIR: 66

Explored 191 nodes (4766 simplex iterations) in 1.02 seconds
Thread count was 6 (of 8 available processors)

Solution count 5: 47.6561 47.7377 49.4538 ... 57.2228

Optimal solution found (tolerance 1.00e-02)
Best objective 4.765613610827e+01, best bound 4.736629267058e+01, gap 0.6082%

Gurobi 9.0.2 (win64) logging started Sat Nov  4 11:57:25 2023

Changed value of parameter LogFile to C:\Users\u0138303\OneDrive - KU Leuven\JointResearch\05. Models\06.Benchmarking\D.Representative_days_based_on_RES_and_Demand\RTS24_ByStages_nc10/openStarNet_RTS24_ByStages_nc10.log
   Prev:   Default: 
Changed value of parameter Method to 2
   Prev: -1  Min: -1  Max: 5  Default: -1
Changed value of parameter MIPFocus to 1
   Prev: 0  Min: 0  Max: 3  Default: 0
Changed value of parameter Presolve to 2
   Prev: -1  Min: -1  Max: 2  Default: -1
Changed value of parameter RINS to 100
   Prev: -1  Min: -1  Max: 2000000000  Default: -1
Parameter Crossover unchanged
   Value: -1  Min: -1  Max: 5  Default: -1
Changed value of parameter MIPGap to 0.01
   Prev: 0.0001  Min: 0.0  Max: inf  Default: 0.0001
Changed value of parameter Threads to 6
   Prev: 0  Min: 0  Max: 1024  Default: 0
Changed value of parameter TimeLimit to 604800.0
   Prev: inf  Min: 0.0  Max: inf  Default: inf
Changed value of parameter IterationLimit to 760000000.0
   Prev: inf  Min: 0.0  Max: inf  Default: inf
No parameters matching 'relax_integrality' found
Gurobi Optimizer version 9.0.2 build v9.0.2rc0 (win64)
Optimize a model with 4691 rows, 2642 columns and 10755 nonzeros
Model fingerprint: 0x1ae8ecd9
Coefficient statistics:
  Matrix range     [3e-02, 3e+03]
  Objective range  [1e+00, 1e+00]
  Bounds range     [4e-04, 3e+00]
  RHS range        [4e-04, 1e+01]
Presolve removed 3793 rows and 1310 columns
Presolve time: 0.00s
Presolved: 898 rows, 1352 columns, 3258 nonzeros

Ordering time: 0.00s

Barrier statistics:
 AA' NZ     : 2.608e+03
 Factor NZ  : 1.203e+04 (roughly 1 MByte of memory)
 Factor Ops : 1.832e+05 (less than 1 second per iteration)
 Threads    : 1

                  Objective                Residual
Iter       Primal          Dual         Primal    Dual     Compl     Time
   0   4.10333159e+05 -1.20216869e+07  4.49e+00 9.18e+02  8.07e+03     0s
   1   4.91898748e+04 -2.03052363e+06  3.40e-01 6.37e-12  8.76e+02     0s
   2   1.04406970e+04 -2.17236207e+05  2.39e-04 7.73e-12  7.74e+01     0s
   3   1.05150315e+03 -1.02440721e+04  7.11e-15 2.22e-12  3.84e+00     0s
   4   2.03182713e+02 -7.45897289e+02  2.89e-14 1.85e-12  3.23e-01     0s
   5   1.19339944e+02 -1.42055152e+02  1.58e-14 2.58e-12  8.89e-02     0s
   6   7.78314476e+01 -1.46543007e+01  1.55e-14 1.71e-12  3.14e-02     0s
   7   6.03739391e+01  2.33839781e+01  1.41e-13 1.57e-12  1.26e-02     0s
   8   4.98283164e+01  4.34728751e+01  2.71e-13 1.72e-12  2.16e-03     0s
   9   4.86513825e+01  4.65191322e+01  3.57e-12 1.59e-12  7.25e-04     0s
  10   4.76986613e+01  4.75215153e+01  1.80e-12 2.31e-12  6.02e-05     0s
  11   4.76570491e+01  4.76539315e+01  1.10e-12 1.87e-12  1.06e-06     0s
  12   4.76561370e+01  4.76561339e+01  1.51e-12 2.42e-12  1.06e-09     0s
  13   4.76561361e+01  4.76561361e+01  1.40e-12 1.84e-12  1.15e-15     0s

Barrier solved model in 13 iterations and 0.02 seconds
Optimal objective 4.76561361e+01

Crossover log...

       0 DPushes remaining with DInf 0.0000000e+00                 0s

      58 PPushes remaining with PInf 0.0000000e+00                 0s
       0 PPushes remaining with PInf 0.0000000e+00                 0s

  Push phase complete: Pinf 0.0000000e+00, Dinf 9.3950368e-13      0s

Iteration    Objective       Primal Inf.    Dual Inf.      Time
      69    4.7656136e+01   0.000000e+00   0.000000e+00      0s

Solved in 69 iterations and 0.02 seconds
Optimal objective  4.765613611e+01

Gurobi 9.5.0 (linux64) logging started Sat Nov  4 17:01:25 2023

Set parameter LogFile to value "/lustre1/scratch/348/vsc34888/JointResearch/05.Models/06.Benchmarking/D.Representative_days_based_on_RES_and_Demand/RTS24_ByStages_nc10/openStarNet_RTS24_ByStages_nc10.log"
Set parameter Method to value 2
Set parameter MIPFocus to value 1
Set parameter Presolve to value 2
Set parameter RINS to value 100
Set parameter MIPGap to value 0.01
Set parameter Threads to value 36
Set parameter TimeLimit to value 604800
Set parameter IterationLimit to value 760000000
Gurobi Optimizer version 9.5.0 build v9.5.0rc5 (linux64)
Thread count: 36 physical cores, 36 logical processors, using up to 36 threads
Optimize a model with 4690 rows, 2681 columns and 12353 nonzeros
Model fingerprint: 0xcd7d901d
Variable types: 2642 continuous, 39 integer (39 binary)
Coefficient statistics:
  Matrix range     [3e-02, 3e+03]
  Objective range  [1e+00, 1e+00]
  Bounds range     [4e-04, 3e+00]
  RHS range        [4e-04, 3e+00]
Presolve removed 2410 rows and 1176 columns
Presolve time: 0.01s
Presolved: 2280 rows, 1505 columns, 7936 nonzeros
Variable types: 1466 continuous, 39 integer (39 binary)
Found heuristic solution: objective 57.2227881
Root relaxation presolved: 2280 rows, 1505 columns, 7936 nonzeros

Root barrier log...

Ordering time: 0.03s

Barrier statistics:
 AA' NZ     : 4.339e+04
 Factor NZ  : 3.392e+05 (roughly 4 MB of memory)
 Factor Ops : 7.255e+07 (less than 1 second per iteration)
 Threads    : 36

                  Objective                Residual
Iter       Primal          Dual         Primal    Dual     Compl     Time
   0   5.74401133e+05 -2.03600050e+07  4.28e+00 5.70e+02  1.23e+04     0s
   1   3.42638618e+04 -5.31340588e+06  2.66e-01 3.09e-11  1.41e+03     0s
   2   3.76801758e+03 -4.15236942e+05  7.95e-03 5.91e-11  9.07e+01     0s
   3   1.61707761e+03 -7.83280744e+03  2.58e-13 8.83e-12  2.01e+00     0s
   4   2.53309654e+02 -1.63521010e+03  3.81e-13 3.64e-12  4.01e-01     0s
   5   1.58411857e+02 -4.97255166e+02  2.74e-13 1.82e-12  1.39e-01     0s
   6   1.09549683e+02 -1.04450602e+02  3.09e-13 3.64e-12  4.54e-02     0s
   7   7.16574813e+01 -2.21261201e+01  1.77e-13 1.82e-12  1.99e-02     0s
   8   4.81291577e+01  2.80492029e+01  1.97e-13 3.64e-12  4.26e-03     0s
   9   4.26875106e+01  3.40009346e+01  2.04e-13 1.82e-12  1.84e-03     0s
  10   3.97686540e+01  3.83444459e+01  1.16e-12 2.73e-12  3.02e-04     0s
  11   3.90118100e+01  3.88608684e+01  3.16e-12 1.82e-12  3.20e-05     0s
  12   3.89246546e+01  3.89104284e+01  2.95e-11 3.64e-12  3.02e-06     0s
  13   3.89212635e+01  3.89210433e+01  2.47e-11 1.82e-12  4.67e-08     0s
  14   3.89212099e+01  3.89212099e+01  4.96e-12 3.64e-12  5.91e-14     0s

Barrier solved model in 14 iterations and 0.28 seconds (0.07 work units)
Optimal objective 3.89212099e+01


Root relaxation: objective 3.892121e+01, 161 iterations, 0.25 seconds (0.05 work units)

    Nodes    |    Current Node    |     Objective Bounds      |     Work
 Expl Unexpl |  Obj  Depth IntInf | Incumbent    BestBd   Gap | It/Node Time

     0     0   38.92121    0    6   57.22279   38.92121  32.0%     -    0s
H    0     0                      50.5664151   38.92121  23.0%     -    0s
     0     0   40.39696    0    8   50.56642   40.39696  20.1%     -    0s
H    0     0                      50.2325167   40.52768  19.3%     -    0s
     0     0   41.49208    0    8   50.23252   41.49208  17.4%     -    0s
     0     0   41.49208    0    8   50.23252   41.49208  17.4%     -    0s
H    0     0                      48.9798858   41.49208  15.3%     -    0s
     0     0   42.29042    0    8   48.97989   42.29042  13.7%     -    0s
     0     0   42.64745    0    9   48.97989   42.64745  12.9%     -    0s
     0     0   42.64745    0    9   48.97989   42.64745  12.9%     -    0s
H    0     0                      47.7377112   42.88159  10.2%     -    0s
     0     0   42.90169    0    9   47.73771   42.90169  10.1%     -    0s
     0     0   43.11465    0   10   47.73771   43.11465  9.68%     -    0s
     0     0   43.38329    0    9   47.73771   43.38329  9.12%     -    0s
     0     0   43.44601    0    9   47.73771   43.44601  8.99%     -    0s
     0     0   43.44601    0    9   47.73771   43.44601  8.99%     -    0s
     0     0   43.52476    0    9   47.73771   43.52476  8.83%     -    0s
     0     0   43.74885    0    9   47.73771   43.74885  8.36%     -    0s
     0     0   43.75987    0    9   47.73771   43.75987  8.33%     -    0s
     0     0   43.83316    0    9   47.73771   43.83316  8.18%     -    0s
     0     0   44.19420    0    8   47.73771   44.19420  7.42%     -    0s
H    0     0                      47.6561361   44.19420  7.26%     -    0s
     0     2   44.19420    0    8   47.65614   44.19420  7.26%     -    0s

Cutting planes:
  Gomory: 4
  Implied bound: 3
  MIR: 52
  Relax-and-lift: 2

Explored 162 nodes (4407 simplex iterations) in 1.27 seconds (0.86 work units)
Thread count was 36 (of 36 available processors)

Solution count 6: 47.6561 47.7377 48.9799 ... 57.2228

Optimal solution found (tolerance 1.00e-02)
Best objective 4.765613610828e+01, best bound 4.740098255714e+01, gap 0.5354%

Gurobi 9.5.0 (linux64) logging started Sat Nov  4 17:01:27 2023

Set parameter LogFile to value "/lustre1/scratch/348/vsc34888/JointResearch/05.Models/06.Benchmarking/D.Representative_days_based_on_RES_and_Demand/RTS24_ByStages_nc10/openStarNet_RTS24_ByStages_nc10.log"
Set parameter Method to value 2
Set parameter MIPFocus to value 1
Set parameter Presolve to value 2
Set parameter RINS to value 100
Set parameter MIPGap to value 0.01
Set parameter Threads to value 36
Set parameter TimeLimit to value 604800
Set parameter IterationLimit to value 760000000
No parameters matching 'relax_integrality' found
Gurobi Optimizer version 9.5.0 build v9.5.0rc5 (linux64)
Thread count: 36 physical cores, 36 logical processors, using up to 36 threads
Optimize a model with 4690 rows, 2642 columns and 10754 nonzeros
Model fingerprint: 0x2032a23d
Coefficient statistics:
  Matrix range     [3e-02, 3e+03]
  Objective range  [1e+00, 1e+00]
  Bounds range     [4e-04, 3e+00]
  RHS range        [4e-04, 1e+01]
Presolve removed 3792 rows and 1310 columns
Presolve time: 0.01s
Presolved: 898 rows, 1352 columns, 3258 nonzeros

Ordering time: 0.00s

Barrier statistics:
 AA' NZ     : 2.202e+03
 Factor NZ  : 9.438e+03 (roughly 1 MB of memory)
 Factor Ops : 1.371e+05 (less than 1 second per iteration)
 Threads    : 1

                  Objective                Residual
Iter       Primal          Dual         Primal    Dual     Compl     Time
   0   5.08943048e+05 -6.03158540e+07  4.42e+00 8.10e+02  4.55e+04     0s
   1   6.64264426e+04 -7.79696626e+06  3.96e-01 3.32e-11  4.32e+03     0s
   2   3.50785557e+04 -6.45177758e+05  9.63e-02 1.86e-11  3.45e+02     0s
   3   1.20449573e+04 -7.48074134e+04  1.74e-13 1.46e-11  3.74e+01     0s
   4   9.55833884e+02 -5.69236795e+03  3.22e-13 1.46e-11  2.86e+00     0s
   5   1.88363108e+02 -1.38539637e+03  1.81e-13 1.82e-12  6.78e-01     0s
   6   1.34714311e+02 -2.90430420e+02  3.91e-14 1.46e-11  1.83e-01     0s
   7   7.88924624e+01 -2.14889840e+01  3.93e-14 1.82e-12  4.32e-02     0s
   8   5.42444163e+01  2.91879354e+01  2.28e-13 1.82e-12  1.08e-02     0s
   9   4.88648618e+01  4.38749093e+01  2.01e-12 7.28e-12  2.15e-03     0s
  10   4.81027480e+01  4.65862932e+01  5.13e-12 1.82e-12  6.53e-04     0s
  11   4.76833276e+01  4.75009421e+01  2.28e-12 1.82e-12  7.85e-05     0s
  12   4.76567355e+01  4.76542377e+01  1.21e-12 7.28e-12  1.08e-06     0s
  13   4.76561367e+01  4.76561342e+01  2.80e-12 7.28e-12  1.08e-09     0s
  14   4.76561361e+01  4.76561361e+01  8.51e-13 7.28e-12  1.08e-12     0s

Barrier solved model in 14 iterations and 0.02 seconds (0.01 work units)
Optimal objective 4.76561361e+01

Crossover log...

     116 DPushes remaining with DInf 0.0000000e+00                 0s
       0 DPushes remaining with DInf 0.0000000e+00                 0s

      56 PPushes remaining with PInf 0.0000000e+00                 0s
       0 PPushes remaining with PInf 0.0000000e+00                 0s

  Push phase complete: Pinf 0.0000000e+00, Dinf 8.5997702e-13      0s

Iteration    Objective       Primal Inf.    Dual Inf.      Time
      63    4.7656136e+01   0.000000e+00   0.000000e+00      0s

Use crossover to convert LP symmetric solution to basic solution...
Crossover log...

       0 DPushes remaining with DInf 0.0000000e+00                 0s

      40 PPushes remaining with PInf 0.0000000e+00                 0s
       0 PPushes remaining with PInf 0.0000000e+00                 0s

  Push phase complete: Pinf 0.0000000e+00, Dinf 8.5078125e-13      0s

Iteration    Objective       Primal Inf.    Dual Inf.      Time
     110    4.7656136e+01   0.000000e+00   0.000000e+00      0s

Solved in 110 iterations and 0.03 seconds (0.02 work units)
Optimal objective  4.765613611e+01

Gurobi 9.0.2 (win64) logging started Mon Nov  6 09:25:22 2023

Changed value of parameter LogFile to C:\Users\u0138303\OneDrive - KU Leuven\JointResearch\05. Models\06.Benchmarking\D.Representative_days_based_on_RES_and_Demand\RTS24_ByStages_nc10/openStarNet_RTS24_ByStages_nc10.log
   Prev:   Default: 
Changed value of parameter Method to 2
   Prev: -1  Min: -1  Max: 5  Default: -1
Changed value of parameter MIPFocus to 1
   Prev: 0  Min: 0  Max: 3  Default: 0
Changed value of parameter Presolve to 2
   Prev: -1  Min: -1  Max: 2  Default: -1
Changed value of parameter RINS to 100
   Prev: -1  Min: -1  Max: 2000000000  Default: -1
Parameter Crossover unchanged
   Value: -1  Min: -1  Max: 5  Default: -1
Changed value of parameter MIPGap to 0.01
   Prev: 0.0001  Min: 0.0  Max: inf  Default: 0.0001
Changed value of parameter Threads to 6
   Prev: 0  Min: 0  Max: 1024  Default: 0
Changed value of parameter TimeLimit to 604800.0
   Prev: inf  Min: 0.0  Max: inf  Default: inf
Changed value of parameter IterationLimit to 760000000.0
   Prev: inf  Min: 0.0  Max: inf  Default: inf
Gurobi Optimizer version 9.0.2 build v9.0.2rc0 (win64)
Optimize a model with 4691 rows, 2681 columns and 12354 nonzeros
Model fingerprint: 0x141884a7
Variable types: 2642 continuous, 39 integer (39 binary)
Coefficient statistics:
  Matrix range     [3e-02, 3e+03]
  Objective range  [1e+00, 1e+00]
  Bounds range     [4e-04, 3e+00]
  RHS range        [4e-04, 3e+00]
Presolve removed 2411 rows and 1176 columns
Presolve time: 0.02s
Presolved: 2280 rows, 1505 columns, 7936 nonzeros
Variable types: 1466 continuous, 39 integer (39 binary)
Presolved: 2280 rows, 1505 columns, 7936 nonzeros

Root barrier log...

Ordering time: 0.05s

Barrier statistics:
 AA' NZ     : 4.339e+04
 Factor NZ  : 3.579e+05 (roughly 4 MBytes of memory)
 Factor Ops : 7.942e+07 (less than 1 second per iteration)
 Threads    : 5

                  Objective                Residual
Iter       Primal          Dual         Primal    Dual     Compl     Time
   0   5.51964279e+05 -2.05158782e+07  3.95e+00 5.70e+02  1.17e+04     0s
   1   5.48905218e+04 -5.15205164e+06  2.77e-01 6.00e-11  1.38e+03     0s
   2   1.54140758e+04 -4.74719960e+05  7.28e-04 2.11e-11  1.04e+02     0s
   3   1.88093569e+03 -3.20720265e+04  7.87e-06 9.66e-12  7.21e+00     0s
   4   2.74748477e+02 -1.96256045e+03  4.31e-13 2.54e-12  4.75e-01     0s
   5   1.51814658e+02 -2.18017233e+02  1.82e-13 2.44e-12  7.85e-02     0s
   6   8.11051815e+01 -4.08779500e+01  1.14e-13 2.06e-12  2.59e-02     0s
   7   5.26371525e+01  9.64363595e+00  1.05e-13 2.90e-12  9.13e-03     0s
   8   4.26697716e+01  2.81495051e+01  2.15e-13 3.52e-12  3.08e-03     0s
   9   4.07623730e+01  3.68771138e+01  1.75e-13 2.77e-12  8.25e-04     0s
  10   3.92915240e+01  3.84556103e+01  6.19e-13 3.58e-12  1.77e-04     0s
  11   3.89887332e+01  3.88879558e+01  2.19e-12 3.08e-12  2.14e-05     0s
  12   3.89234666e+01  3.89185376e+01  2.39e-11 1.82e-12  1.05e-06     0s
  13   3.89212122e+01  3.89212071e+01  1.86e-11 3.87e-12  1.09e-09     0s
  14   3.89212099e+01  3.89212099e+01  1.20e-11 3.67e-12  4.76e-15     0s

Barrier solved model in 14 iterations and 0.21 seconds
Optimal objective 3.89212099e+01


Root relaxation: objective 3.892121e+01, 124 iterations, 0.19 seconds

    Nodes    |    Current Node    |     Objective Bounds      |     Work
 Expl Unexpl |  Obj  Depth IntInf | Incumbent    BestBd   Gap | It/Node Time

     0     0   38.92121    0    6          -   38.92121      -     -    0s
H    0     0                      57.2227881   38.92121  32.0%     -    0s
H    0     0                      50.5664151   38.92121  23.0%     -    0s
     0     0   40.29585    0    8   50.56642   40.29585  20.3%     -    0s
     0     0   40.33488    0    8   50.56642   40.33488  20.2%     -    0s
     0     0   41.49208    0    7   50.56642   41.49208  17.9%     -    0s
     0     0   42.64745    0    7   50.56642   42.64745  15.7%     -    0s
H    0     0                      49.4537517   42.64745  13.8%     -    0s
H    0     0                      47.7377112   42.88159  10.2%     -    0s
     0     0   42.93471    0    9   47.73771   42.93471  10.1%     -    0s
     0     0   43.11465    0    8   47.73771   43.11465  9.68%     -    0s
     0     0   43.48331    0    8   47.73771   43.48331  8.91%     -    0s
     0     0   43.51225    0    9   47.73771   43.51225  8.85%     -    0s
     0     0   43.52476    0    9   47.73771   43.52476  8.83%     -    0s
H    0     0                      47.6561361   43.52476  8.67%     -    1s
     0     2   43.52476    0    9   47.65614   43.52476  8.67%     -    1s

Cutting planes:
  Gomory: 5
  MIR: 66

Explored 191 nodes (4766 simplex iterations) in 1.80 seconds
Thread count was 6 (of 8 available processors)

Solution count 5: 47.6561 47.7377 49.4538 ... 57.2228

Optimal solution found (tolerance 1.00e-02)
Best objective 4.765613610827e+01, best bound 4.736629267058e+01, gap 0.6082%

Gurobi 9.0.2 (win64) logging started Mon Nov  6 09:25:25 2023

Changed value of parameter LogFile to C:\Users\u0138303\OneDrive - KU Leuven\JointResearch\05. Models\06.Benchmarking\D.Representative_days_based_on_RES_and_Demand\RTS24_ByStages_nc10/openStarNet_RTS24_ByStages_nc10.log
   Prev:   Default: 
Changed value of parameter Method to 2
   Prev: -1  Min: -1  Max: 5  Default: -1
Changed value of parameter MIPFocus to 1
   Prev: 0  Min: 0  Max: 3  Default: 0
Changed value of parameter Presolve to 2
   Prev: -1  Min: -1  Max: 2  Default: -1
Changed value of parameter RINS to 100
   Prev: -1  Min: -1  Max: 2000000000  Default: -1
Parameter Crossover unchanged
   Value: -1  Min: -1  Max: 5  Default: -1
Changed value of parameter MIPGap to 0.01
   Prev: 0.0001  Min: 0.0  Max: inf  Default: 0.0001
Changed value of parameter Threads to 6
   Prev: 0  Min: 0  Max: 1024  Default: 0
Changed value of parameter TimeLimit to 604800.0
   Prev: inf  Min: 0.0  Max: inf  Default: inf
Changed value of parameter IterationLimit to 760000000.0
   Prev: inf  Min: 0.0  Max: inf  Default: inf
No parameters matching 'relax_integrality' found
Gurobi Optimizer version 9.0.2 build v9.0.2rc0 (win64)
Optimize a model with 4691 rows, 2642 columns and 10755 nonzeros
Model fingerprint: 0x97c43494
Coefficient statistics:
  Matrix range     [3e-02, 3e+03]
  Objective range  [1e+00, 1e+00]
  Bounds range     [4e-04, 3e+00]
  RHS range        [4e-04, 1e+01]
Presolve removed 3793 rows and 1310 columns
Presolve time: 0.01s
Presolved: 898 rows, 1352 columns, 3258 nonzeros

Ordering time: 0.00s

Barrier statistics:
 AA' NZ     : 2.608e+03
 Factor NZ  : 1.203e+04 (roughly 1 MByte of memory)
 Factor Ops : 1.832e+05 (less than 1 second per iteration)
 Threads    : 1

                  Objective                Residual
Iter       Primal          Dual         Primal    Dual     Compl     Time
   0   4.10333159e+05 -1.20216869e+07  4.49e+00 9.18e+02  8.07e+03     0s
   1   4.91898748e+04 -2.03052363e+06  3.40e-01 6.37e-12  8.76e+02     0s
   2   1.04406970e+04 -2.17236207e+05  2.39e-04 7.73e-12  7.74e+01     0s
   3   1.05150315e+03 -1.02440721e+04  7.11e-15 2.22e-12  3.84e+00     0s
   4   2.03182713e+02 -7.45897289e+02  2.89e-14 1.85e-12  3.23e-01     0s
   5   1.19339944e+02 -1.42055152e+02  1.58e-14 2.58e-12  8.89e-02     0s
   6   7.78314476e+01 -1.46543007e+01  1.55e-14 1.71e-12  3.14e-02     0s
   7   6.03739391e+01  2.33839781e+01  1.41e-13 1.57e-12  1.26e-02     0s
   8   4.98283164e+01  4.34728751e+01  2.71e-13 1.72e-12  2.16e-03     0s
   9   4.86513825e+01  4.65191322e+01  3.57e-12 1.59e-12  7.25e-04     0s
  10   4.76986613e+01  4.75215153e+01  1.80e-12 2.31e-12  6.02e-05     0s
  11   4.76570491e+01  4.76539315e+01  1.10e-12 1.87e-12  1.06e-06     0s
  12   4.76561370e+01  4.76561339e+01  1.51e-12 2.42e-12  1.06e-09     0s
  13   4.76561361e+01  4.76561361e+01  1.40e-12 1.84e-12  1.15e-15     0s

Barrier solved model in 13 iterations and 0.03 seconds
Optimal objective 4.76561361e+01

Crossover log...

       0 DPushes remaining with DInf 0.0000000e+00                 0s

      58 PPushes remaining with PInf 0.0000000e+00                 0s
       0 PPushes remaining with PInf 0.0000000e+00                 0s

  Push phase complete: Pinf 0.0000000e+00, Dinf 9.3950368e-13      0s

Iteration    Objective       Primal Inf.    Dual Inf.      Time
      69    4.7656136e+01   0.000000e+00   0.000000e+00      0s

Solved in 69 iterations and 0.04 seconds
Optimal objective  4.765613611e+01

Gurobi 9.5.0 (linux64) logging started Wed Nov  8 12:43:54 2023

Set parameter LogFile to value "/lustre1/scratch/348/vsc34888/JointResearch/05.Models/06.Benchmarking/D.Representative_days_based_on_RES_and_Demand/RTS24_ByStages_nc10/openStarNet_RTS24_ByStages_nc10.log"
Set parameter Method to value 2
Set parameter MIPFocus to value 1
Set parameter Presolve to value 2
Set parameter RINS to value 100
Set parameter MIPGap to value 0.01
Set parameter Threads to value 36
Set parameter TimeLimit to value 604800
Set parameter IterationLimit to value 760000000
Gurobi Optimizer version 9.5.0 build v9.5.0rc5 (linux64)
Thread count: 36 physical cores, 36 logical processors, using up to 36 threads
Optimize a model with 4690 rows, 2681 columns and 12583 nonzeros
Model fingerprint: 0x81122370
Variable types: 2642 continuous, 39 integer (39 binary)
Coefficient statistics:
  Matrix range     [3e-02, 3e+03]
  Objective range  [1e+00, 1e+00]
  Bounds range     [4e-04, 3e+00]
  RHS range        [4e-04, 3e+00]
Presolve removed 2410 rows and 1176 columns
Presolve time: 0.01s
Presolved: 2280 rows, 1505 columns, 7936 nonzeros
Variable types: 1466 continuous, 39 integer (39 binary)
Found heuristic solution: objective 151.6457786
Root relaxation presolved: 2280 rows, 1505 columns, 7936 nonzeros

Root barrier log...

Ordering time: 0.03s

Barrier statistics:
 AA' NZ     : 4.339e+04
 Factor NZ  : 3.292e+05 (roughly 4 MB of memory)
 Factor Ops : 6.918e+07 (less than 1 second per iteration)
 Threads    : 36

                  Objective                Residual
Iter       Primal          Dual         Primal    Dual     Compl     Time
   0   5.76095794e+05 -2.03860861e+07  4.25e+00 5.68e+02  1.22e+04     0s
   1   3.84962754e+04 -5.31745206e+06  2.66e-01 2.36e-11  1.41e+03     0s
   2   7.36929297e+03 -4.11919505e+05  5.51e-03 4.04e-11  9.00e+01     0s
   3   1.90015131e+03 -1.69444445e+04  3.38e-13 9.29e-12  4.00e+00     0s
   4   3.95572992e+02 -3.19190440e+03  2.92e-13 3.64e-12  7.62e-01     0s
   5   2.74000847e+02 -9.86510302e+02  2.29e-13 1.82e-12  2.68e-01     0s
   6   1.88137512e+02 -3.62872891e+02  1.49e-13 3.64e-12  1.17e-01     0s
   7   1.22982056e+02 -7.96281289e+01  1.34e-13 3.64e-12  4.30e-02     0s
   8   9.42154003e+01  3.34811094e+01  2.89e-13 1.82e-12  1.29e-02     0s
   9   8.26641682e+01  5.76352288e+01  1.09e-12 1.82e-12  5.31e-03     0s
  10   7.62607959e+01  6.95847747e+01  5.76e-13 1.82e-12  1.42e-03     0s
  11   7.41170854e+01  7.30414664e+01  1.78e-12 3.64e-12  2.28e-04     0s
  12   7.35466926e+01  7.35247425e+01  2.01e-12 3.64e-12  4.66e-06     0s
  13   7.35377017e+01  7.35376977e+01  2.38e-12 1.82e-12  8.41e-10     0s
  14   7.35377006e+01  7.35377006e+01  1.20e-11 3.64e-12  4.92e-15     0s

Barrier solved model in 14 iterations and 0.29 seconds (0.07 work units)
Optimal objective 7.35377006e+01


Root relaxation: objective 7.353770e+01, 153 iterations, 0.26 seconds (0.05 work units)

    Nodes    |    Current Node    |     Objective Bounds      |     Work
 Expl Unexpl |  Obj  Depth IntInf | Incumbent    BestBd   Gap | It/Node Time

     0     0   73.53770    0    9  151.64578   73.53770  51.5%     -    0s
H    0     0                      89.8506730   73.53770  18.2%     -    0s
     0     0   77.20371    0   10   89.85067   77.20371  14.1%     -    0s
     0     0   77.20371    0   10   89.85067   77.20371  14.1%     -    0s
     0     0   77.70315    0   10   89.85067   77.70315  13.5%     -    0s
     0     0   77.70315    0   10   89.85067   77.70315  13.5%     -    0s
     0     0   77.78144    0    8   89.85067   77.78144  13.4%     -    0s
     0     0   77.82778    0    9   89.85067   77.82778  13.4%     -    0s
     0     0   77.88123    0    9   89.85067   77.88123  13.3%     -    0s
     0     0   77.92593    0   10   89.85067   77.92593  13.3%     -    0s
     0     0   77.92593    0   10   89.85067   77.92593  13.3%     -    0s
     0     0   78.14518    0   10   89.85067   78.14518  13.0%     -    0s
     0     0   78.46975    0   10   89.85067   78.46975  12.7%     -    0s
     0     0   79.24127    0   10   89.85067   79.24127  11.8%     -    0s
H    0     0                      84.9618184   79.24127  6.73%     -    0s
     0     2   79.24127    0   10   84.96182   79.24127  6.73%     -    0s

Cutting planes:
  Gomory: 4
  Implied bound: 4
  MIR: 54
  Relax-and-lift: 2

Explored 279 nodes (7998 simplex iterations) in 1.61 seconds (1.29 work units)
Thread count was 36 (of 36 available processors)

Solution count 3: 84.9618 89.8507 151.646 

Optimal solution found (tolerance 1.00e-02)
Best objective 8.496181843852e+01, best bound 8.496181843852e+01, gap 0.0000%

Gurobi 9.5.0 (linux64) logging started Wed Nov  8 12:43:55 2023

Set parameter LogFile to value "/lustre1/scratch/348/vsc34888/JointResearch/05.Models/06.Benchmarking/D.Representative_days_based_on_RES_and_Demand/RTS24_ByStages_nc10/openStarNet_RTS24_ByStages_nc10.log"
Set parameter Method to value 2
Set parameter MIPFocus to value 1
Set parameter Presolve to value 2
Set parameter RINS to value 100
Set parameter MIPGap to value 0.01
Set parameter Threads to value 36
Set parameter TimeLimit to value 604800
Set parameter IterationLimit to value 760000000
No parameters matching 'relax_integrality' found
Gurobi Optimizer version 9.5.0 build v9.5.0rc5 (linux64)
Thread count: 36 physical cores, 36 logical processors, using up to 36 threads
Optimize a model with 4690 rows, 2642 columns and 10984 nonzeros
Model fingerprint: 0xce33704c
Coefficient statistics:
  Matrix range     [3e-02, 3e+03]
  Objective range  [1e+00, 1e+00]
  Bounds range     [4e-04, 3e+00]
  RHS range        [4e-04, 3e+01]
Presolve removed 3760 rows and 1276 columns
Presolve time: 0.01s
Presolved: 930 rows, 1386 columns, 3426 nonzeros

Ordering time: 0.00s

Barrier statistics:
 AA' NZ     : 2.393e+03
 Factor NZ  : 1.024e+04 (roughly 1 MB of memory)
 Factor Ops : 1.564e+05 (less than 1 second per iteration)
 Threads    : 1

                  Objective                Residual
Iter       Primal          Dual         Primal    Dual     Compl     Time
   0   9.12531012e+05 -1.25856085e+08  2.97e+00 1.04e+03  9.36e+04     0s
   1   8.23049595e+04 -1.67159921e+07  2.32e-01 6.55e-11  8.77e+03     0s
   2   3.91084840e+04 -2.18004870e+06  6.08e-02 1.02e-10  1.06e+03     0s
   3   1.94589768e+04 -1.62491230e+05  5.44e-14 3.42e-11  7.64e+01     0s
   4   3.04500268e+03 -1.56926404e+04  7.64e-13 2.91e-11  7.87e+00     0s
   5   5.09132569e+02 -2.40968000e+03  2.34e-13 1.46e-11  1.23e+00     0s
   6   2.46256178e+02 -3.98065870e+02  1.20e-13 1.46e-11  2.70e-01     0s
   7   1.58410008e+02 -1.05657437e+02  6.02e-14 1.46e-11  1.11e-01     0s
   8   1.05544623e+02  5.13582511e+01  4.77e-13 1.46e-11  2.27e-02     0s
   9   8.72669146e+01  8.30399335e+01  1.25e-12 1.46e-11  1.77e-03     0s
  10   8.58599645e+01  8.48164426e+01  7.55e-11 1.46e-11  4.38e-04     0s
  11   8.49793719e+01  8.49274505e+01  2.04e-11 1.46e-11  2.18e-05     0s
  12   8.49618187e+01  8.49618172e+01  1.21e-11 1.46e-11  6.16e-10     0s
  13   8.49618184e+01  8.49618184e+01  4.40e-12 1.46e-11  6.16e-13     0s

Barrier solved model in 13 iterations and 0.03 seconds (0.01 work units)
Optimal objective 8.49618184e+01

Crossover log...

     125 DPushes remaining with DInf 0.0000000e+00                 0s
       0 DPushes remaining with DInf 0.0000000e+00                 0s

      48 PPushes remaining with PInf 0.0000000e+00                 0s
       0 PPushes remaining with PInf 0.0000000e+00                 0s

  Push phase complete: Pinf 0.0000000e+00, Dinf 3.7278216e-12      0s

Iteration    Objective       Primal Inf.    Dual Inf.      Time
      53    8.4961818e+01   0.000000e+00   0.000000e+00      0s

Use crossover to convert LP symmetric solution to basic solution...
Crossover log...

       0 DPushes remaining with DInf 0.0000000e+00                 0s

      35 PPushes remaining with PInf 0.0000000e+00                 0s
       0 PPushes remaining with PInf 0.0000000e+00                 0s

  Push phase complete: Pinf 0.0000000e+00, Dinf 2.4471354e-12      0s

Iteration    Objective       Primal Inf.    Dual Inf.      Time
      92    8.4961818e+01   0.000000e+00   0.000000e+00      0s

Solved in 92 iterations and 0.03 seconds (0.02 work units)
Optimal objective  8.496181844e+01
